hBN
1.000
   2.500000000   0.000000000   0.000000000
  -1.250000000   2.165063509   0.000000000
   0.000000000   0.000000000  18.000000000
B N
1 1
Direct
      0.000000000   0.000000000   0.500000000
      0.333333333   0.666666667   0.500000000
